3286672
59,49,41,6,11,54,35,7,39,20,104,70,103,96,21,63,57,88,10,90,53,92,86,12,55,91,43,2,45,94,60,83,1,15,106,82,24,80,93,29,78,3,66,108,51,44,102,62,19,42,73,14,65,84,5,31,50,58,28,100,33,97,4,0,34,81,76,22,95,18,61,75,98,72,17,87,64,27,56,74,71,36,8,9,79,47,52,101,16,46,40,85,89,23,99,48,30,37,25,68,69,26,13,38,67,77,32,107,105
